result&benchmarks/Data/Ex1/verify/Output/id2_i5_o5-1_process_dc_iter1Output/Counterexample.2.smt2
(set-info :source |printed by MathSAT|)
(declare-fun |id::x__param__@2| () (_ BitVec 32))
(declare-fun |id::x@2| () (_ BitVec 32))
(declare-fun |id2::x__param__@2| () (_ BitVec 32))
(declare-fun |id2::x@2| () (_ BitVec 32))
(declare-fun |id::x__param__@3| () (_ BitVec 32))
(declare-fun |id2::__retval__@2| () (_ BitVec 32))
(declare-fun |id::__retval__@2| () (_ BitVec 32))
(declare-fun |id::x@3| () (_ BitVec 32))
(declare-fun |id2::x__param__@3| () (_ BitVec 32))
(declare-fun |id2::x@3| () (_ BitVec 32))
(declare-fun |id::x__param__@4| () (_ BitVec 32))
(declare-fun |id::x@4| () (_ BitVec 32))
(declare-fun |id2::x__param__@4| () (_ BitVec 32))
(declare-fun |id2::x@4| () (_ BitVec 32))
(declare-fun |id2::iVar1@5| () (_ BitVec 32))
(declare-fun |id::iVar1@6| () (_ BitVec 32))
(declare-fun |id::iVar1@7| () (_ BitVec 32))
(declare-fun |id2::__retval__@4| () (_ BitVec 32))
(declare-fun |id::__retval__@4| () (_ BitVec 32))
(declare-fun |id2::iVar1@8| () (_ BitVec 32))
(declare-fun |id2::iVar1@9| () (_ BitVec 32))
(declare-fun |id::iVar1@10| () (_ BitVec 32))
(declare-fun |id::iVar1@11| () (_ BitVec 32))
(declare-fun |id2::iVar1@12| () (_ BitVec 32))
(declare-fun |id2::iVar1@13| () (_ BitVec 32))
(declare-fun |id2::__retval__@6| () (_ BitVec 32))
(declare-fun |id::iVar1@14| () (_ BitVec 32))
(declare-fun |id::iVar1@15| () (_ BitVec 32))
(declare-fun |id::__retval__@6| () (_ BitVec 32))
(declare-fun |main::iVar1@9| () (_ BitVec 32))
(assert (let ((.def_14 (= |id::x__param__@2| |id::x@2|)))(let ((.def_12 (= |id::x__param__@2| (_ bv5 32))))(let ((.def_206 (and .def_12 .def_14)))(let ((.def_15 (= |id::x@2| (_ bv0 32))))(let ((.def_19 (not .def_15)))(let ((.def_207 (and .def_19 .def_206)))(let ((.def_24 (bvadd (_ bv4294967295 32) |id::x@2|)))(let ((.def_26 (= .def_24 |id2::x__param__@2|)))(let ((.def_208 (and .def_26 .def_207)))(let ((.def_28 (= |id2::x__param__@2| |id2::x@2|)))(let ((.def_209 (and .def_28 .def_208)))(let ((.def_29 (= |id2::x@2| (_ bv0 32))))(let ((.def_32 (not .def_29)))(let ((.def_210 (and .def_32 .def_209)))(let ((.def_36 (bvadd (_ bv4294967295 32) |id2::x@2|)))(let ((.def_38 (= .def_36 |id::x__param__@3|)))(let ((.def_211 (and .def_38 .def_210)))(let ((.def_88 (= |id::x__param__@3| |id::x@3|)))(let ((.def_212 (and .def_88 .def_211)))(let ((.def_89 (= |id::x@3| (_ bv0 32))))(let ((.def_91 (not .def_89)))(let ((.def_213 (and .def_91 .def_212)))(let ((.def_95 (bvadd (_ bv4294967295 32) |id::x@3|)))(let ((.def_97 (= .def_95 |id2::x__param__@3|)))(let ((.def_214 (and .def_97 .def_213)))(let ((.def_99 (= |id2::x__param__@3| |id2::x@3|)))(let ((.def_215 (and .def_99 .def_214)))(let ((.def_100 (= |id2::x@3| (_ bv0 32))))(let ((.def_102 (not .def_100)))(let ((.def_216 (and .def_102 .def_215)))(let ((.def_106 (bvadd (_ bv4294967295 32) |id2::x@3|)))(let ((.def_108 (= .def_106 |id::x__param__@4|)))(let ((.def_217 (and .def_108 .def_216)))(let ((.def_110 (= |id::x__param__@4| |id::x@4|)))(let ((.def_218 (and .def_110 .def_217)))(let ((.def_111 (= |id::x@4| (_ bv0 32))))(let ((.def_113 (not .def_111)))(let ((.def_219 (and .def_113 .def_218)))(let ((.def_117 (bvadd (_ bv4294967295 32) |id::x@4|)))(let ((.def_119 (= .def_117 |id2::x__param__@4|)))(let ((.def_220 (and .def_119 .def_219)))(let ((.def_121 (= |id2::x__param__@4| |id2::x@4|)))(let ((.def_221 (and .def_121 .def_220)))(let ((.def_122 (= |id2::x@4| (_ bv0 32))))(let ((.def_222 (and .def_122 .def_221)))(let ((.def_126 (= |id2::iVar1@5| (_ bv0 32))))(let ((.def_223 (and .def_126 .def_222)))(let ((.def_128 (= |id2::__retval__@2| |id2::iVar1@5|)))(let ((.def_224 (and .def_128 .def_223)))(let ((.def_131 (= |id2::__retval__@2| |id::iVar1@6|)))(let ((.def_225 (and .def_131 .def_224)))(let ((.def_133 (bvadd (_ bv1 32) |id::iVar1@6|)))(let ((.def_135 (= .def_133 |id::iVar1@7|)))(let ((.def_226 (and .def_135 .def_225)))(let ((.def_136 (= |id::__retval__@2| |id::iVar1@7|)))(let ((.def_227 (and .def_136 .def_226)))(let ((.def_167 (= |id::__retval__@2| |id2::iVar1@8|)))(let ((.def_228 (and .def_167 .def_227)))(let ((.def_169 (bvadd (_ bv1 32) |id2::iVar1@8|)))(let ((.def_171 (= .def_169 |id2::iVar1@9|)))(let ((.def_229 (and .def_171 .def_228)))(let ((.def_172 (= |id2::__retval__@4| |id2::iVar1@9|)))(let ((.def_230 (and .def_172 .def_229)))(let ((.def_175 (= |id2::__retval__@4| |id::iVar1@10|)))(let ((.def_231 (and .def_175 .def_230)))(let ((.def_177 (bvadd (_ bv1 32) |id::iVar1@10|)))(let ((.def_179 (= .def_177 |id::iVar1@11|)))(let ((.def_232 (and .def_179 .def_231)))(let ((.def_180 (= |id::__retval__@4| |id::iVar1@11|)))(let ((.def_233 (and .def_180 .def_232)))(let ((.def_183 (= |id::__retval__@4| |id2::iVar1@12|)))(let ((.def_234 (and .def_183 .def_233)))(let ((.def_185 (bvadd (_ bv1 32) |id2::iVar1@12|)))(let ((.def_187 (= .def_185 |id2::iVar1@13|)))(let ((.def_235 (and .def_187 .def_234)))(let ((.def_189 (= |id2::iVar1@13| |id2::__retval__@6|)))(let ((.def_236 (and .def_189 .def_235)))(let ((.def_192 (= |id2::__retval__@6| |id::iVar1@14|)))(let ((.def_237 (and .def_192 .def_236)))(let ((.def_194 (bvadd (_ bv1 32) |id::iVar1@14|)))(let ((.def_196 (= .def_194 |id::iVar1@15|)))(let ((.def_238 (and .def_196 .def_237)))(let ((.def_198 (= |id::iVar1@15| |id::__retval__@6|)))(let ((.def_239 (and .def_198 .def_238)))(let ((.def_201 (= |id::__retval__@6| |main::iVar1@9|)))(let ((.def_240 (and .def_201 .def_239)))(let ((.def_202 (= |main::iVar1@9| (_ bv5 32))))(let ((.def_241 (and .def_202 .def_240))).def_241)))))))))))))))))))))))))))))))))))))))))))))))))))))))))))))))))))))))))))))))))))))))))