result&benchmarks/Data/Ex1/verify/Output/id2_i5_o5-1_process_dc_iter1Output/Counterexample.2.txt
none:	N61 -{INIT GLOBAL VARS}-> N81
/usr/include/assert.h, lines 69-71:	N81 -{void __assert_fail(const char *__assertion, const char *__file, unsigned int __line, const char *__function);}-> N82
/usr/include/assert.h, lines 74-76:	N82 -{void __assert_perror_fail(int __errnum, const char *__file, unsigned int __line, const char *__function);}-> N83
/usr/include/assert.h, lines 81-82:	N83 -{void __assert(const char *__assertion, const char *__file, int __line);}-> N84
/usr/lib/gcc/x86_64-linux-gnu/11/include/stddef.h, line 209:	N84 -{typedef unsigned long int size_t;}-> N85
/usr/lib/gcc/x86_64-linux-gnu/11/include/stddef.h, line 321:	N85 -{typedef int wchar_t;}-> N86
/usr/include/stdlib.h, lines 59-63:	N86 -{struct __anon_type_div_t {   int quot;   int rem; } ;}-> N87
/usr/include/stdlib.h, lines 59-63:	N87 -{typedef struct __anon_type_div_t div_t;}-> N88
/usr/include/stdlib.h, lines 67-71:	N88 -{struct __anon_type_ldiv_t {   long int quot;   long int rem; } ;}-> N89
/usr/include/stdlib.h, lines 67-71:	N89 -{typedef struct __anon_type_ldiv_t ldiv_t;}-> N90
/usr/include/stdlib.h, lines 77-81:	N90 -{struct __anon_type_lldiv_t {   long long int quot;   long long int rem; } ;}-> N91
/usr/include/stdlib.h, lines 77-81:	N91 -{typedef struct __anon_type_lldiv_t lldiv_t;}-> N92
/usr/include/stdlib.h, line 98:	N92 -{size_t __ctype_get_mb_cur_max();}-> N93
/usr/include/stdlib.h, lines 102-103:	N93 -{double atof(const char *__nptr);}-> N94
/usr/include/stdlib.h, lines 105-106:	N94 -{int atoi(const char *__nptr);}-> N95
/usr/include/stdlib.h, lines 108-109:	N95 -{long int atol(const char *__nptr);}-> N96
/usr/include/stdlib.h, lines 113-114:	N96 -{long long int atoll(const char *__nptr);}-> N97
/usr/include/stdlib.h, lines 118-120:	N97 -{double strtod(const char *__nptr, char **__endptr);}-> N98
/usr/include/stdlib.h, lines 124-125:	N98 -{float strtof(const char *__nptr, char **__endptr);}-> N99
/usr/include/stdlib.h, lines 127-129:	N99 -{long double strtold(const char *__nptr, char **__endptr);}-> N100
/usr/include/stdlib.h, lines 177-179:	N100 -{long int strtol(const char *__nptr, char **__endptr, int __base);}-> N101
/usr/include/stdlib.h, lines 181-183:	N101 -{unsigned long int strtoul(const char *__nptr, char **__endptr, int __base);}-> N102
/usr/include/stdlib.h, lines 188-190:	N102 -{long long int strtoq(const char *__nptr, char **__endptr, int __base);}-> N103
/usr/include/stdlib.h, lines 193-195:	N103 -{unsigned long long int strtouq(const char *__nptr, char **__endptr, int __base);}-> N104
/usr/include/stdlib.h, lines 201-203:	N104 -{long long int strtoll(const char *__nptr, char **__endptr, int __base);}-> N105
/usr/include/stdlib.h, lines 206-208:	N105 -{unsigned long long int strtoull(const char *__nptr, char **__endptr, int __base);}-> N106
/usr/include/stdlib.h, line 386:	N106 -{char *l64a(long int __n);}-> N107
/usr/include/stdlib.h, lines 389-390:	N107 -{long int a64l(const char *__s);}-> N108
/usr/include/x86_64-linux-gnu/bits/types.h, line 31:	N108 -{typedef unsigned char __u_char;}-> N109
/usr/include/x86_64-linux-gnu/bits/types.h, line 32:	N109 -{typedef unsigned short int __u_short;}-> N110
/usr/include/x86_64-linux-gnu/bits/types.h, line 33:	N110 -{typedef unsigned int __u_int;}-> N111
/usr/include/x86_64-linux-gnu/bits/types.h, line 34:	N111 -{typedef unsigned long int __u_long;}-> N112
/usr/include/x86_64-linux-gnu/bits/types.h, line 37:	N112 -{typedef signed char __int8_t;}-> N113
/usr/include/x86_64-linux-gnu/bits/types.h, line 38:	N113 -{typedef unsigned char __uint8_t;}-> N114
/usr/include/x86_64-linux-gnu/bits/types.h, line 39:	N114 -{typedef signed short int __int16_t;}-> N115
/usr/include/x86_64-linux-gnu/bits/types.h, line 40:	N115 -{typedef unsigned short int __uint16_t;}-> N116
/usr/include/x86_64-linux-gnu/bits/types.h, line 41:	N116 -{typedef signed int __int32_t;}-> N117
/usr/include/x86_64-linux-gnu/bits/types.h, line 42:	N117 -{typedef unsigned int __uint32_t;}-> N118
/usr/include/x86_64-linux-gnu/bits/types.h, line 44:	N118 -{typedef signed long int __int64_t;}-> N119
/usr/include/x86_64-linux-gnu/bits/types.h, line 45:	N119 -{typedef unsigned long int __uint64_t;}-> N120
/usr/include/x86_64-linux-gnu/bits/types.h, line 52:	N120 -{typedef __int8_t __int_least8_t;}-> N121
/usr/include/x86_64-linux-gnu/bits/types.h, line 53:	N121 -{typedef __uint8_t __uint_least8_t;}-> N122
/usr/include/x86_64-linux-gnu/bits/types.h, line 54:	N122 -{typedef __int16_t __int_least16_t;}-> N123
/usr/include/x86_64-linux-gnu/bits/types.h, line 55:	N123 -{typedef __uint16_t __uint_least16_t;}-> N124
/usr/include/x86_64-linux-gnu/bits/types.h, line 56:	N124 -{typedef __int32_t __int_least32_t;}-> N125
/usr/include/x86_64-linux-gnu/bits/types.h, line 57:	N125 -{typedef __uint32_t __uint_least32_t;}-> N126
/usr/include/x86_64-linux-gnu/bits/types.h, line 58:	N126 -{typedef __int64_t __int_least64_t;}-> N127
/usr/include/x86_64-linux-gnu/bits/types.h, line 59:	N127 -{typedef __uint64_t __uint_least64_t;}-> N128
/usr/include/x86_64-linux-gnu/bits/types.h, line 63:	N128 -{typedef long int __quad_t;}-> N129
/usr/include/x86_64-linux-gnu/bits/types.h, line 64:	N129 -{typedef unsigned long int __u_quad_t;}-> N130
/usr/include/x86_64-linux-gnu/bits/types.h, line 72:	N130 -{typedef long int __intmax_t;}-> N131
/usr/include/x86_64-linux-gnu/bits/types.h, line 73:	N131 -{typedef unsigned long int __uintmax_t;}-> N132
/usr/include/x86_64-linux-gnu/bits/types.h, line 145:	N132 -{typedef unsigned long int __dev_t;}-> N133
/usr/include/x86_64-linux-gnu/bits/types.h, line 146:	N133 -{typedef unsigned int __uid_t;}-> N134
/usr/include/x86_64-linux-gnu/bits/types.h, line 147:	N134 -{typedef unsigned int __gid_t;}-> N135
/usr/include/x86_64-linux-gnu/bits/types.h, line 148:	N135 -{typedef unsigned long int __ino_t;}-> N136
/usr/include/x86_64-linux-gnu/bits/types.h, line 149:	N136 -{typedef unsigned long int __ino64_t;}-> N137
/usr/include/x86_64-linux-gnu/bits/types.h, line 150:	N137 -{typedef unsigned int __mode_t;}-> N138
/usr/include/x86_64-linux-gnu/bits/types.h, line 151:	N138 -{typedef unsigned long int __nlink_t;}-> N139
/usr/include/x86_64-linux-gnu/bits/types.h, line 152:	N139 -{typedef long int __off_t;}-> N140
/usr/include/x86_64-linux-gnu/bits/types.h, line 153:	N140 -{typedef long int __off64_t;}-> N141
/usr/include/x86_64-linux-gnu/bits/types.h, line 154:	N141 -{typedef int __pid_t;}-> N142
/usr/include/x86_64-linux-gnu/bits/types.h, line 155:	N142 -{struct __anon_type___fsid_t {   int __val[2]; } ;}-> N143
/usr/include/x86_64-linux-gnu/bits/types.h, line 155:	N143 -{typedef struct __anon_type___fsid_t __fsid_t;}-> N144
/usr/include/x86_64-linux-gnu/bits/types.h, line 156:	N144 -{typedef long int __clock_t;}-> N145
/usr/include/x86_64-linux-gnu/bits/types.h, line 157:	N145 -{typedef unsigned long int __rlim_t;}-> N146
/usr/include/x86_64-linux-gnu/bits/types.h, line 158:	N146 -{typedef unsigned long int __rlim64_t;}-> N147
/usr/include/x86_64-linux-gnu/bits/types.h, line 159:	N147 -{typedef unsigned int __id_t;}-> N148
/usr/include/x86_64-linux-gnu/bits/types.h, line 160:	N148 -{typedef long int __time_t;}-> N149
/usr/include/x86_64-linux-gnu/bits/types.h, line 161:	N149 -{typedef unsigned int __useconds_t;}-> N150
/usr/include/x86_64-linux-gnu/bits/types.h, line 162:	N150 -{typedef long int __suseconds_t;}-> N151
/usr/include/x86_64-linux-gnu/bits/types.h, line 163:	N151 -{typedef long int __suseconds64_t;}-> N152
/usr/include/x86_64-linux-gnu/bits/types.h, line 165:	N152 -{typedef int __daddr_t;}-> N153
/usr/include/x86_64-linux-gnu/bits/types.h, line 166:	N153 -{typedef int __key_t;}-> N154
/usr/include/x86_64-linux-gnu/bits/types.h, line 169:	N154 -{typedef int __clockid_t;}-> N155
/usr/include/x86_64-linux-gnu/bits/types.h, line 172:	N155 -{typedef void *__timer_t;}-> N156
/usr/include/x86_64-linux-gnu/bits/types.h, line 175:	N156 -{typedef long int __blksize_t;}-> N157
/usr/include/x86_64-linux-gnu/bits/types.h, line 180:	N157 -{typedef long int __blkcnt_t;}-> N158
/usr/include/x86_64-linux-gnu/bits/types.h, line 181:	N158 -{typedef long int __blkcnt64_t;}-> N159
/usr/include/x86_64-linux-gnu/bits/types.h, line 184:	N159 -{typedef unsigned long int __fsblkcnt_t;}-> N160
/usr/include/x86_64-linux-gnu/bits/types.h, line 185:	N160 -{typedef unsigned long int __fsblkcnt64_t;}-> N161
/usr/include/x86_64-linux-gnu/bits/types.h, line 188:	N161 -{typedef unsigned long int __fsfilcnt_t;}-> N162
/usr/include/x86_64-linux-gnu/bits/types.h, line 189:	N162 -{typedef unsigned long int __fsfilcnt64_t;}-> N163
/usr/include/x86_64-linux-gnu/bits/types.h, line 192:	N163 -{typedef long int __fsword_t;}-> N164
/usr/include/x86_64-linux-gnu/bits/types.h, line 194:	N164 -{typedef long int __ssize_t;}-> N165
/usr/include/x86_64-linux-gnu/bits/types.h, line 197:	N165 -{typedef long int __syscall_slong_t;}-> N166
/usr/include/x86_64-linux-gnu/bits/types.h, line 199:	N166 -{typedef unsigned long int __syscall_ulong_t;}-> N167
/usr/include/x86_64-linux-gnu/bits/types.h, line 203:	N167 -{typedef __off64_t __loff_t;}-> N168
/usr/include/x86_64-linux-gnu/bits/types.h, line 204:	N168 -{typedef char *__caddr_t;}-> N169
/usr/include/x86_64-linux-gnu/bits/types.h, line 207:	N169 -{typedef long int __intptr_t;}-> N170
/usr/include/x86_64-linux-gnu/bits/types.h, line 210:	N170 -{typedef unsigned int __socklen_t;}-> N171
/usr/include/x86_64-linux-gnu/bits/types.h, line 215:	N171 -{typedef int __sig_atomic_t;}-> N172
/usr/include/x86_64-linux-gnu/sys/types.h, line 33:	N172 -{typedef __u_char u_char;}-> N173
/usr/include/x86_64-linux-gnu/sys/types.h, line 34:	N173 -{typedef __u_short u_short;}-> N174
/usr/include/x86_64-linux-gnu/sys/types.h, line 35:	N174 -{typedef __u_int u_int;}-> N175
/usr/include/x86_64-linux-gnu/sys/types.h, line 36:	N175 -{typedef __u_long u_long;}-> N176
/usr/include/x86_64-linux-gnu/sys/types.h, line 37:	N176 -{typedef __quad_t quad_t;}-> N177
/usr/include/x86_64-linux-gnu/sys/types.h, line 38:	N177 -{typedef __u_quad_t u_quad_t;}-> N178
/usr/include/x86_64-linux-gnu/sys/types.h, line 39:	N178 -{typedef __fsid_t fsid_t;}-> N179
/usr/include/x86_64-linux-gnu/sys/types.h, line 42:	N179 -{typedef __loff_t loff_t;}-> N180
/usr/include/x86_64-linux-gnu/sys/types.h, line 47:	N180 -{typedef __ino_t ino_t;}-> N181
/usr/include/x86_64-linux-gnu/sys/types.h, line 59:	N181 -{typedef __dev_t dev_t;}-> N182
/usr/include/x86_64-linux-gnu/sys/types.h, line 64:	N182 -{typedef __gid_t gid_t;}-> N183
/usr/include/x86_64-linux-gnu/sys/types.h, line 69:	N183 -{typedef __mode_t mode_t;}-> N184
/usr/include/x86_64-linux-gnu/sys/types.h, line 74:	N184 -{typedef __nlink_t nlink_t;}-> N185
/usr/include/x86_64-linux-gnu/sys/types.h, line 79:	N185 -{typedef __uid_t uid_t;}-> N186
/usr/include/x86_64-linux-gnu/sys/types.h, line 85:	N186 -{typedef __off_t off_t;}-> N187
/usr/include/x86_64-linux-gnu/sys/types.h, line 97:	N187 -{typedef __pid_t pid_t;}-> N188
/usr/include/x86_64-linux-gnu/sys/types.h, line 103:	N188 -{typedef __id_t id_t;}-> N189
/usr/include/x86_64-linux-gnu/sys/types.h, line 108:	N189 -{typedef __ssize_t ssize_t;}-> N190
/usr/include/x86_64-linux-gnu/sys/types.h, line 114:	N190 -{typedef __daddr_t daddr_t;}-> N191
/usr/include/x86_64-linux-gnu/sys/types.h, line 115:	N191 -{typedef __caddr_t caddr_t;}-> N192
/usr/include/x86_64-linux-gnu/sys/types.h, line 121:	N192 -{typedef __key_t key_t;}-> N193
/usr/include/x86_64-linux-gnu/bits/types/clock_t.h, line 7:	N193 -{typedef __clock_t clock_t;}-> N194
/usr/include/x86_64-linux-gnu/bits/types/clockid_t.h, line 7:	N194 -{typedef __clockid_t clockid_t;}-> N195
/usr/include/x86_64-linux-gnu/bits/types/time_t.h, line 10:	N195 -{typedef __time_t time_t;}-> N196
/usr/include/x86_64-linux-gnu/bits/types/timer_t.h, line 7:	N196 -{typedef __timer_t timer_t;}-> N197
/usr/include/x86_64-linux-gnu/sys/types.h, line 148:	N197 -{typedef unsigned long int ulong;}-> N198
/usr/include/x86_64-linux-gnu/sys/types.h, line 149:	N198 -{typedef unsigned short int ushort;}-> N199
/usr/include/x86_64-linux-gnu/sys/types.h, line 150:	N199 -{typedef unsigned int uint;}-> N200
/usr/include/x86_64-linux-gnu/bits/stdint-intn.h, line 24:	N200 -{typedef __int8_t int8_t;}-> N201
/usr/include/x86_64-linux-gnu/bits/stdint-intn.h, line 25:	N201 -{typedef __int16_t int16_t;}-> N202
/usr/include/x86_64-linux-gnu/bits/stdint-intn.h, line 26:	N202 -{typedef __int32_t int32_t;}-> N203
/usr/include/x86_64-linux-gnu/bits/stdint-intn.h, line 27:	N203 -{typedef __int64_t int64_t;}-> N204
/usr/include/x86_64-linux-gnu/sys/types.h, line 158:	N204 -{typedef __uint8_t u_int8_t;}-> N205
/usr/include/x86_64-linux-gnu/sys/types.h, line 159:	N205 -{typedef __uint16_t u_int16_t;}-> N206
/usr/include/x86_64-linux-gnu/sys/types.h, line 160:	N206 -{typedef __uint32_t u_int32_t;}-> N207
/usr/include/x86_64-linux-gnu/sys/types.h, line 161:	N207 -{typedef __uint64_t u_int64_t;}-> N208
/usr/include/x86_64-linux-gnu/sys/types.h, line 164:	N208 -{typedef signed int register_t;}-> N209
/usr/include/x86_64-linux-gnu/bits/byteswap.h, lines 33-41:	N209 -{__uint16_t __bswap_16(__uint16_t __bsx);}-> N210
/usr/include/x86_64-linux-gnu/bits/byteswap.h, lines 48-56:	N210 -{__uint32_t __bswap_32(__uint32_t __bsx);}-> N211
/usr/include/x86_64-linux-gnu/bits/byteswap.h, lines 69-77:	N211 -{__uint64_t __bswap_64(__uint64_t __bsx);}-> N212
/usr/include/x86_64-linux-gnu/bits/uintn-identity.h, lines 32-36:	N212 -{__uint16_t __uint16_identity(__uint16_t __x);}-> N213
/usr/include/x86_64-linux-gnu/bits/uintn-identity.h, lines 38-42:	N213 -{__uint32_t __uint32_identity(__uint32_t __x);}-> N214
/usr/include/x86_64-linux-gnu/bits/uintn-identity.h, lines 44-48:	N214 -{__uint64_t __uint64_identity(__uint64_t __x);}-> N215
/usr/include/x86_64-linux-gnu/bits/types/__sigset_t.h, lines 5-8:	N215 -{struct __anon_type___sigset_t {   unsigned long int __val[32UL]; } ;}-> N216
/usr/include/x86_64-linux-gnu/bits/types/__sigset_t.h, lines 5-8:	N216 -{typedef struct __anon_type___sigset_t __sigset_t;}-> N217
/usr/include/x86_64-linux-gnu/bits/types/sigset_t.h, line 7:	N217 -{typedef __sigset_t sigset_t;}-> N218
/usr/include/x86_64-linux-gnu/bits/types/struct_timeval.h, lines 8-17:	N218 -{struct timeval {   __time_t tv_sec;   __suseconds_t tv_usec; } ;}-> N219
/usr/include/x86_64-linux-gnu/bits/types/struct_timespec.h, lines 11-31:	N219 -{struct timespec {   __time_t tv_sec;   __syscall_slong_t tv_nsec; } ;}-> N220
/usr/include/x86_64-linux-gnu/sys/select.h, line 43:	N220 -{typedef __suseconds_t suseconds_t;}-> N221
/usr/include/x86_64-linux-gnu/sys/select.h, line 49:	N221 -{typedef long int __fd_mask;}-> N222
/usr/include/x86_64-linux-gnu/sys/select.h, lines 59-70:	N222 -{struct __anon_type_fd_set {   __fd_mask __fds_bits[32]; } ;}-> N223
/usr/include/x86_64-linux-gnu/sys/select.h, lines 59-70:	N223 -{typedef struct __anon_type_fd_set fd_set;}-> N224
/usr/include/x86_64-linux-gnu/sys/select.h, line 77:	N224 -{typedef __fd_mask fd_mask;}-> N225
/usr/include/x86_64-linux-gnu/sys/select.h, lines 102-105:	N225 -{int select(int __nfds, fd_set *__readfds, fd_set *__writefds, fd_set *__exceptfds, struct timeval *__timeout);}-> N226
/usr/include/x86_64-linux-gnu/sys/select.h, lines 127-131:	N226 -{int pselect(int __nfds, fd_set *__readfds, fd_set *__writefds, fd_set *__exceptfds, const struct timespec *__timeout, const __sigset_t *__sigmask);}-> N227
/usr/include/x86_64-linux-gnu/sys/types.h, line 185:	N227 -{typedef __blksize_t blksize_t;}-> N228
/usr/include/x86_64-linux-gnu/sys/types.h, line 192:	N228 -{typedef __blkcnt_t blkcnt_t;}-> N229
/usr/include/x86_64-linux-gnu/sys/types.h, line 196:	N229 -{typedef __fsblkcnt_t fsblkcnt_t;}-> N230
/usr/include/x86_64-linux-gnu/sys/types.h, line 200:	N230 -{typedef __fsfilcnt_t fsfilcnt_t;}-> N231
/usr/include/x86_64-linux-gnu/bits/atomic_wide_counter.h, lines 28-32:	N231 -{struct __anon_type_0 {   unsigned int __low;   unsigned int __high; } ;}-> N232
/usr/include/x86_64-linux-gnu/bits/atomic_wide_counter.h, lines 25-33:	N232 -{union __anon_type___atomic_wide_counter {   unsigned long long int __value64;   struct __anon_type_0 __value32; } ;}-> N233
/usr/include/x86_64-linux-gnu/bits/atomic_wide_counter.h, lines 25-33:	N233 -{typedef union __anon_type___atomic_wide_counter __atomic_wide_counter;}-> N234
/usr/include/x86_64-linux-gnu/bits/thread-shared-types.h, lines 51-55:	N234 -{struct __pthread_internal_list {   struct __pthread_internal_list *__prev;   struct __pthread_internal_list *__next; } ;}-> N235
/usr/include/x86_64-linux-gnu/bits/thread-shared-types.h, lines 51-55:	N235 -{typedef struct __pthread_internal_list __pthread_list_t;}-> N236
/usr/include/x86_64-linux-gnu/bits/thread-shared-types.h, lines 57-60:	N236 -{struct __pthread_internal_slist {   struct __pthread_internal_slist *__next; } ;}-> N237
/usr/include/x86_64-linux-gnu/bits/thread-shared-types.h, lines 57-60:	N237 -{typedef struct __pthread_internal_slist __pthread_slist_t;}-> N238
/usr/include/x86_64-linux-gnu/bits/struct_mutex.h, lines 22-53:	N238 -{struct __pthread_mutex_s {   int __lock;   unsigned int __count;   int __owner;   unsigned int __nusers;   int __kind;   short __spins;   short __elision;   __pthread_list_t __list; } ;}-> N239
/usr/include/x86_64-linux-gnu/bits/struct_rwlock.h, lines 23-55:	N239 -{struct __pthread_rwlock_arch_t {   unsigned int __readers;   unsigned int __writers;   unsigned int __wrphase_futex;   unsigned int __writers_futex;   unsigned int __pad3;   unsigned int __pad4;   int __cur_writer;   int __shared;   signed char __rwelision;   unsigned char __pad1[7];   unsigned long int __pad2;   unsigned int __flags; } ;}-> N240
/usr/include/x86_64-linux-gnu/bits/thread-shared-types.h, lines 94-103:	N240 -{struct __pthread_cond_s {   __atomic_wide_counter __wseq;   __atomic_wide_counter __g1_start;   unsigned int __g_refs[2];   unsigned int __g_size[2];   unsigned int __g1_orig_size;   unsigned int __wrefs;   unsigned int __g_signals[2]; } ;}-> N241
/usr/include/x86_64-linux-gnu/bits/thread-shared-types.h, line 105:	N241 -{typedef unsigned int __tss_t;}-> N242
/usr/include/x86_64-linux-gnu/bits/thread-shared-types.h, line 106:	N242 -{typedef unsigned long int __thrd_t;}-> N243
/usr/include/x86_64-linux-gnu/bits/thread-shared-types.h, lines 108-111:	N243 -{struct __anon_type___once_flag {   int __data; } ;}-> N244
/usr/include/x86_64-linux-gnu/bits/thread-shared-types.h, lines 108-111:	N244 -{typedef struct __anon_type___once_flag __once_flag;}-> N245
/usr/include/x86_64-linux-gnu/bits/pthreadtypes.h, line 27:	N245 -{typedef unsigned long int pthread_t;}-> N246
/usr/include/x86_64-linux-gnu/bits/pthreadtypes.h, lines 32-36:	N246 -{union __anon_type_pthread_mutexattr_t {   char __size[4];   int __align; } ;}-> N247
/usr/include/x86_64-linux-gnu/bits/pthreadtypes.h, lines 32-36:	N247 -{typedef union __anon_type_pthread_mutexattr_t pthread_mutexattr_t;}-> N248
/usr/include/x86_64-linux-gnu/bits/pthreadtypes.h, lines 41-45:	N248 -{union __anon_type_pthread_condattr_t {   char __size[4];   int __align; } ;}-> N249
/usr/include/x86_64-linux-gnu/bits/pthreadtypes.h, lines 41-45:	N249 -{typedef union __anon_type_pthread_mutexattr_t pthread_condattr_t;}-> N250
/usr/include/x86_64-linux-gnu/bits/pthreadtypes.h, line 49:	N250 -{typedef unsigned int pthread_key_t;}-> N251
/usr/include/x86_64-linux-gnu/bits/pthreadtypes.h, line 53:	N251 -{typedef int pthread_once_t;}-> N252
/usr/include/x86_64-linux-gnu/bits/pthreadtypes.h, lines 56-60:	N252 -{union pthread_attr_t {   char __size[56];   long int __align; } ;}-> N253
/usr/include/x86_64-linux-gnu/bits/pthreadtypes.h, line 62:	N253 -{typedef union pthread_attr_t pthread_attr_t;}-> N254
/usr/include/x86_64-linux-gnu/bits/pthreadtypes.h, lines 67-72:	N254 -{union __anon_type_pthread_mutex_t {   struct __pthread_mutex_s __data;   char __size[40];   long int __align; } ;}-> N255
/usr/include/x86_64-linux-gnu/bits/pthreadtypes.h, lines 67-72:	N255 -{typedef union __anon_type_pthread_mutex_t pthread_mutex_t;}-> N256
/usr/include/x86_64-linux-gnu/bits/pthreadtypes.h, lines 75-80:	N256 -{union __anon_type_pthread_cond_t {   struct __pthread_cond_s __data;   char __size[48];   long long int __align; } ;}-> N257
/usr/include/x86_64-linux-gnu/bits/pthreadtypes.h, lines 75-80:	N257 -{typedef union __anon_type_pthread_cond_t pthread_cond_t;}-> N258
/usr/include/x86_64-linux-gnu/bits/pthreadtypes.h, lines 86-91:	N258 -{union __anon_type_pthread_rwlock_t {   struct __pthread_rwlock_arch_t __data;   char __size[56];   long int __align; } ;}-> N259
/usr/include/x86_64-linux-gnu/bits/pthreadtypes.h, lines 86-91:	N259 -{typedef union __anon_type_pthread_rwlock_t pthread_rwlock_t;}-> N260
/usr/include/x86_64-linux-gnu/bits/pthreadtypes.h, lines 93-97:	N260 -{union __anon_type_pthread_rwlockattr_t {   char __size[8];   long int __align; } ;}-> N261
/usr/include/x86_64-linux-gnu/bits/pthreadtypes.h, lines 93-97:	N261 -{typedef union __anon_type_pthread_rwlockattr_t pthread_rwlockattr_t;}-> N262
/usr/include/x86_64-linux-gnu/bits/pthreadtypes.h, line 103:	N262 -{typedef volatile int pthread_spinlock_t;}-> N263
/usr/include/x86_64-linux-gnu/bits/pthreadtypes.h, lines 108-112:	N263 -{union __anon_type_pthread_barrier_t {   char __size[32];   long int __align; } ;}-> N264
/usr/include/x86_64-linux-gnu/bits/pthreadtypes.h, lines 108-112:	N264 -{typedef union __anon_type_pthread_barrier_t pthread_barrier_t;}-> N265
/usr/include/x86_64-linux-gnu/bits/pthreadtypes.h, lines 114-118:	N265 -{union __anon_type_pthread_barrierattr_t {   char __size[4];   int __align; } ;}-> N266
/usr/include/x86_64-linux-gnu/bits/pthreadtypes.h, lines 114-118:	N266 -{typedef union __anon_type_pthread_mutexattr_t pthread_barrierattr_t;}-> N267
/usr/include/stdlib.h, line 402:	N267 -{long int random();}-> N268
/usr/include/stdlib.h, line 405:	N268 -{void srandom(unsigned int __seed);}-> N269
/usr/include/stdlib.h, lines 411-412:	N269 -{char *initstate(unsigned int __seed, char *__statebuf, size_t __statelen);}-> N270
/usr/include/stdlib.h, line 416:	N270 -{char *setstate(char *__statebuf);}-> N271
/usr/include/stdlib.h, lines 424-433:	N271 -{struct random_data {   int32_t *fptr;   int32_t *rptr;   int32_t *state;   int rand_type;   int rand_deg;   int rand_sep;   int32_t *end_ptr; } ;}-> N272
/usr/include/stdlib.h, lines 435-436:	N272 -{int random_r(struct random_data *__buf, int32_t *__result);}-> N273
/usr/include/stdlib.h, lines 438-439:	N273 -{int srandom_r(unsigned int __seed, struct random_data *__buf);}-> N274
/usr/include/stdlib.h, lines 441-444:	N274 -{int initstate_r(unsigned int __seed, char *__statebuf, size_t __statelen, struct random_data *__buf);}-> N275
/usr/include/stdlib.h, lines 446-448:	N275 -{int setstate_r(char *__statebuf, struct random_data *__buf);}-> N276
/usr/include/stdlib.h, line 454:	N276 -{int rand();}-> N277
/usr/include/stdlib.h, line 456:	N277 -{void srand(unsigned int __seed);}-> N278
/usr/include/stdlib.h, line 460:	N278 -{int rand_r(unsigned int *__seed);}-> N279
/usr/include/stdlib.h, line 468:	N279 -{double drand48();}-> N280
/usr/include/stdlib.h, line 469:	N280 -{double erand48(unsigned short int __xsubi[3]);}-> N281
/usr/include/stdlib.h, line 472:	N281 -{long int lrand48();}-> N282
/usr/include/stdlib.h, lines 473-474:	N282 -{long int nrand48(unsigned short int __xsubi[3]);}-> N283
/usr/include/stdlib.h, line 477:	N283 -{long int mrand48();}-> N284
/usr/include/stdlib.h, lines 478-479:	N284 -{long int jrand48(unsigned short int __xsubi[3]);}-> N285
/usr/include/stdlib.h, line 482:	N285 -{void srand48(long int __seedval);}-> N286
/usr/include/stdlib.h, lines 483-484:	N286 -{unsigned short int *seed48(unsigned short int __seed16v[3]);}-> N287
/usr/include/stdlib.h, line 485:	N287 -{void lcong48(unsigned short int __param[7]);}-> N288
/usr/include/stdlib.h, lines 491-499:	N288 -{struct drand48_data {   unsigned short int __x[3];   unsigned short int __old_x[3];   unsigned short int __c;   unsigned short int __init;   unsigned long long int __a; } ;}-> N289
/usr/include/stdlib.h, lines 502-503:	N289 -{int drand48_r(struct drand48_data *__buffer, double *__result);}-> N290
/usr/include/stdlib.h, lines 504-506:	N290 -{int erand48_r(unsigned short int __xsubi[3], struct drand48_data *__buffer, double *__result);}-> N291
/usr/include/stdlib.h, lines 509-511:	N291 -{int lrand48_r(struct drand48_data *__buffer, long int *__result);}-> N292
/usr/include/stdlib.h, lines 512-515:	N292 -{int nrand48_r(unsigned short int __xsubi[3], struct drand48_data *__buffer, long int *__result);}-> N293
/usr/include/stdlib.h, lines 518-520:	N293 -{int mrand48_r(struct drand48_data *__buffer, long int *__result);}-> N294
/usr/include/stdlib.h, lines 521-524:	N294 -{int jrand48_r(unsigned short int __xsubi[3], struct drand48_data *__buffer, long int *__result);}-> N295
/usr/include/stdlib.h, lines 527-528:	N295 -{int srand48_r(long int __seedval, struct drand48_data *__buffer);}-> N296
/usr/include/stdlib.h, lines 530-531:	N296 -{int seed48_r(unsigned short int __seed16v[3], struct drand48_data *__buffer);}-> N297
/usr/include/stdlib.h, lines 533-535:	N297 -{int lcong48_r(unsigned short int __param[7], struct drand48_data *__buffer);}-> N298
/usr/include/stdlib.h, lines 540-541:	N298 -{void *malloc(size_t __size);}-> N299
/usr/include/stdlib.h, lines 543-544:	N299 -{void *calloc(size_t __nmemb, size_t __size);}-> N300
/usr/include/stdlib.h, lines 551-552:	N300 -{void *realloc(void *__ptr, size_t __size);}-> N301
/usr/include/stdlib.h, line 555:	N301 -{void free(void *__ptr);}-> N302
/usr/include/stdlib.h, lines 563-566:	N302 -{void *reallocarray(void *__ptr, size_t __nmemb, size_t __size);}-> N303
/usr/include/alloca.h, line 32:	N303 -{void *alloca(size_t __size);}-> N304
/usr/include/stdlib.h, lines 580-581:	N304 -{void *valloc(size_t __size);}-> N305
/usr/include/stdlib.h, lines 586-587:	N305 -{int posix_memalign(void **__memptr, size_t __alignment, size_t __size);}-> N306
/usr/include/stdlib.h, lines 592-594:	N306 -{void *aligned_alloc(size_t __alignment, size_t __size);}-> N307
/usr/include/stdlib.h, line 598:	N307 -{void abort();}-> N308
/usr/include/stdlib.h, line 602:	N308 -{int atexit(void (*__func)());}-> N309
/usr/include/stdlib.h, line 610:	N309 -{int at_quick_exit(void (*__func)());}-> N310
/usr/include/stdlib.h, lines 617-618:	N310 -{int on_exit(void (*__func)(int __status, void *__arg), void *__arg);}-> N311
/usr/include/stdlib.h, line 624:	N311 -{void exit(int __status);}-> N312
/usr/include/stdlib.h, line 630:	N312 -{void quick_exit(int __status);}-> N313
/usr/include/stdlib.h, line 636:	N313 -{void _Exit(int __status);}-> N314
/usr/include/stdlib.h, line 641:	N314 -{char *getenv(const char *__name);}-> N315
/usr/include/stdlib.h, line 654:	N315 -{int putenv(char *__string);}-> N316
/usr/include/stdlib.h, lines 660-661:	N316 -{int setenv(const char *__name, const char *__value, int __replace);}-> N317
/usr/include/stdlib.h, line 664:	N317 -{int unsetenv(const char *__name);}-> N318
/usr/include/stdlib.h, line 671:	N318 -{int clearenv();}-> N319
/usr/include/stdlib.h, line 682:	N319 -{char *mktemp(char *__template);}-> N320
/usr/include/stdlib.h, line 695:	N320 -{int mkstemp(char *__template);}-> N321
/usr/include/stdlib.h, line 717:	N321 -{int mkstemps(char *__template, int __suffixlen);}-> N322
/usr/include/stdlib.h, line 738:	N322 -{char *mkdtemp(char *__template);}-> N323
/usr/include/stdlib.h, line 791:	N323 -{int system(const char *__command);}-> N324
/usr/include/stdlib.h, lines 808-809:	N324 -{char *realpath(const char *__name, char *__resolved);}-> N325
/usr/include/stdlib.h, line 816:	N325 -{typedef int (*__compar_fn_t)(const void *, const void *);}-> N326
/usr/include/stdlib.h, lines 828-830:	N326 -{void *bsearch(const void *__key, const void *__base, size_t __nmemb, size_t __size, __compar_fn_t __compar);}-> N327
/usr/include/stdlib.h, lines 838-839:	N327 -{void qsort(void *__base, size_t __nmemb, size_t __size, __compar_fn_t __compar);}-> N328
/usr/include/stdlib.h, line 848:	N328 -{int abs(int __x);}-> N329
/usr/include/stdlib.h, line 849:	N329 -{long int labs(long int __x);}-> N330
/usr/include/stdlib.h, lines 852-853:	N330 -{long long int llabs(long long int __x);}-> N331
/usr/include/stdlib.h, lines 860-861:	N331 -{div_t div(int __numer, int __denom);}-> N332
/usr/include/stdlib.h, lines 862-863:	N332 -{ldiv_t ldiv(long int __numer, long int __denom);}-> N333
/usr/include/stdlib.h, lines 866-868:	N333 -{lldiv_t lldiv(long long int __numer, long long int __denom);}-> N334
/usr/include/stdlib.h, lines 880-881:	N334 -{char *ecvt(double __value, int __ndigit, int *__decpt, int *__sign);}-> N335
/usr/include/stdlib.h, lines 886-887:	N335 -{char *fcvt(double __value, int __ndigit, int *__decpt, int *__sign);}-> N336
/usr/include/stdlib.h, lines 892-893:	N336 -{char *gcvt(double __value, int __ndigit, char *__buf);}-> N337
/usr/include/stdlib.h, lines 898-900:	N337 -{char *qecvt(long double __value, int __ndigit, int *__decpt, int *__sign);}-> N338
/usr/include/stdlib.h, lines 901-903:	N338 -{char *qfcvt(long double __value, int __ndigit, int *__decpt, int *__sign);}-> N339
/usr/include/stdlib.h, lines 904-905:	N339 -{char *qgcvt(long double __value, int __ndigit, char *__buf);}-> N340
/usr/include/stdlib.h, lines 910-912:	N340 -{int ecvt_r(double __value, int __ndigit, int *__decpt, int *__sign, char *__buf, size_t __len);}-> N341
/usr/include/stdlib.h, lines 913-915:	N341 -{int fcvt_r(double __value, int __ndigit, int *__decpt, int *__sign, char *__buf, size_t __len);}-> N342
/usr/include/stdlib.h, lines 917-920:	N342 -{int qecvt_r(long double __value, int __ndigit, int *__decpt, int *__sign, char *__buf, size_t __len);}-> N343
/usr/include/stdlib.h, lines 921-924:	N343 -{int qfcvt_r(long double __value, int __ndigit, int *__decpt, int *__sign, char *__buf, size_t __len);}-> N344
/usr/include/stdlib.h, line 930:	N344 -{int mblen(const char *__s, size_t __n);}-> N345
/usr/include/stdlib.h, lines 933-934:	N345 -{int mbtowc(wchar_t *__pwc, const char *__s, size_t __n);}-> N346
/usr/include/stdlib.h, line 937:	N346 -{int wctomb(char *__s, wchar_t __wchar);}-> N347
/usr/include/stdlib.h, lines 941-943:	N347 -{size_t mbstowcs(wchar_t *__pwcs, const char *__s, size_t __n);}-> N348
/usr/include/stdlib.h, lines 945-949:	N348 -{size_t wcstombs(char *__s, const wchar_t *__pwcs, size_t __n);}-> N349
/usr/include/stdlib.h, line 956:	N349 -{int rpmatch(const char *__response);}-> N350
/usr/include/stdlib.h, lines 967-970:	N350 -{int getsubopt(char **__optionp, char * const *__tokens, char **__valuep);}-> N351
/usr/include/stdlib.h, lines 1013-1014:	N351 -{int getloadavg(double __loadavg[], int __nelem);}-> N352
line 5:	N352 -{int id(int x);}-> N353
line 6:	N353 -{int id2(int x);}-> N354
lines 8-10:	N354 -{void assume(int cond);}-> N355
lines 38-48:	N355 -{int main();}-> N356
none:	N356 -{Function start dummy edge}-> N62
line 39:	N62 -{int iVar1;}-> N63
line 40:	N63 -{int result;}-> N64
line 41:	N64 -{int input;}-> N65
line 43:	N65 -{id(5)}-> N37
none:	N37 -{Function start dummy edge}-> N38
	x == 5;
line 13:	N38 -{int iVar1;}-> N39
	x == 5;
line 14:	N39 -{int x_local;}-> N40
line 16:	N40 -{[!(x == 0)]}-> N43
	x == 5;
	x == 5;
line 19:	N43 -{id2(x - 1)}-> N49
none:	N49 -{Function start dummy edge}-> N50
	x == 4;
line 26:	N50 -{int iVar1;}-> N51
	x == 4;
line 27:	N51 -{int x_local;}-> N52
line 29:	N52 -{[!(x == 0)]}-> N55
	x == 4;
	x == 4;
line 32:	N55 -{id(x - 1)}-> N37
none:	N37 -{Function start dummy edge}-> N38
	x == 3;
line 13:	N38 -{int iVar1;}-> N39
	x == 3;
line 14:	N39 -{int x_local;}-> N40
line 16:	N40 -{[!(x == 0)]}-> N43
	x == 3;
	x == 3;
line 19:	N43 -{id2(x - 1)}-> N49
none:	N49 -{Function start dummy edge}-> N50
	x == 2;
line 26:	N50 -{int iVar1;}-> N51
	x == 2;
line 27:	N51 -{int x_local;}-> N52
line 29:	N52 -{[!(x == 0)]}-> N55
	x == 2;
	x == 2;
line 32:	N55 -{id(x - 1)}-> N37
none:	N37 -{Function start dummy edge}-> N38
	x == 1;
line 13:	N38 -{int iVar1;}-> N39
	x == 1;
line 14:	N39 -{int x_local;}-> N40
line 16:	N40 -{[!(x == 0)]}-> N43
	x == 1;
	x == 1;
line 19:	N43 -{id2(x - 1)}-> N49
none:	N49 -{Function start dummy edge}-> N50
	x == 0;
line 26:	N50 -{int iVar1;}-> N51
	x == 0;
line 27:	N51 -{int x_local;}-> N52
line 29:	N52 -{[x == 0]}-> N54
	x == 0;
	x == 0;
line 30:	N54 -{iVar1 = 0;}-> N56
	iVar1 == 0;
none:	N56 -{}-> N53
line 35:	N53 -{return iVar1;}-> N48
	iVar1 = 0
line 19:	N48 -{Return edge from id2 to id: iVar1 = id2(x - 1);}-> N45
line 20:	N45 -{iVar1 = iVar1 + 1;}-> N46
	iVar1 == 1;
none:	N46 -{}-> N41
line 22:	N41 -{return iVar1;}-> N36
	iVar1 = 1
line 32:	N36 -{Return edge from id to id2: iVar1 = id(x - 1);}-> N57
line 33:	N57 -{iVar1 = iVar1 + 1;}-> N58
	iVar1 == 2;
none:	N58 -{}-> N53
line 35:	N53 -{return iVar1;}-> N48
	iVar1 = 2
line 19:	N48 -{Return edge from id2 to id: iVar1 = id2(x - 1);}-> N45
line 20:	N45 -{iVar1 = iVar1 + 1;}-> N46
	iVar1 == 3;
none:	N46 -{}-> N41
line 22:	N41 -{return iVar1;}-> N36
	iVar1 = 3
line 32:	N36 -{Return edge from id to id2: iVar1 = id(x - 1);}-> N57
line 33:	N57 -{iVar1 = iVar1 + 1;}-> N58
	iVar1 == 4;
none:	N58 -{}-> N53
line 35:	N53 -{return iVar1;}-> N48
	iVar1 = 4
line 19:	N48 -{Return edge from id2 to id: iVar1 = id2(x - 1);}-> N45
line 20:	N45 -{iVar1 = iVar1 + 1;}-> N46
	iVar1 == 5;
none:	N46 -{}-> N41
line 22:	N41 -{return iVar1;}-> N36
	iVar1 = 5
line 43:	N36 -{Return edge from id to main: iVar1 = id(5);}-> N66
line 44:	N66 -{[iVar1 == 5]}-> N68
	iVar1 == 5;
	iVar1 == 5;
line 45:	N68 -{int __CPAchecker_TMP_2;}-> N69
line 45:	N69 -{}-> N71
line 45:	N71 -{__CPAchecker_TMP_2 = 0;}-> N73
line 45:	N73 -{4UL;}-> N74
line 45:	N74 -{}-> N77
line 45:	N77 -{__assert_fail("0 && \"Assertion failed: iVar1 should not equal 5\"", "/home/zyl/biVerify/CPA_DATA2/C/F/llmfix/realOutput/iterationTry/id2_i5_o5-1_process_dc_iter1.c", 45, "__PRETTY_FUNCTION__");}-> N358
